c t mc
c file mc2022_track1_037.cnf
p cnf 781 1776
1 0
-4 3 -2 0
-4 -3 2 0
4 -3 -2 0
4 3 2 0
5 -36 67 0
-67 -5 0
-67 36 0
-5 36 68 0
-68 5 0
-68 -36 0
6 -37 69 0
-69 -6 0
-69 37 0
-6 37 70 0
-70 6 0
-70 -37 0
7 -38 71 0
-71 -7 0
-71 38 0
-7 38 72 0
-72 7 0
-72 -38 0
8 -39 73 0
-73 -8 0
-73 39 0
-8 39 74 0
-74 8 0
-74 -39 0
9 -40 75 0
-75 -9 0
-75 40 0
-9 40 76 0
-76 9 0
-76 -40 0
10 -41 77 0
-77 -10 0
-77 41 0
-10 41 78 0
-78 10 0
-78 -41 0
11 -42 79 0
-79 -11 0
-79 42 0
-11 42 80 0
-80 11 0
-80 -42 0
12 -43 81 0
-81 -12 0
-81 43 0
-12 43 82 0
-82 12 0
-82 -43 0
13 -44 83 0
-83 -13 0
-83 44 0
-13 44 84 0
-84 13 0
-84 -44 0
14 -45 85 0
-85 -14 0
-85 45 0
-14 45 86 0
-86 14 0
-86 -45 0
15 -46 87 0
-87 -15 0
-87 46 0
-15 46 88 0
-88 15 0
-88 -46 0
16 -47 89 0
-89 -16 0
-89 47 0
-16 47 90 0
-90 16 0
-90 -47 0
17 -48 91 0
-91 -17 0
-91 48 0
-17 48 92 0
-92 17 0
-92 -48 0
18 -49 93 0
-93 -18 0
-93 49 0
-18 49 94 0
-94 18 0
-94 -49 0
19 -50 95 0
-95 -19 0
-95 50 0
-19 50 96 0
-96 19 0
-96 -50 0
20 -51 97 0
-97 -20 0
-97 51 0
-20 51 98 0
-98 20 0
-98 -51 0
21 -52 99 0
-99 -21 0
-99 52 0
-21 52 100 0
-100 21 0
-100 -52 0
22 -53 101 0
-101 -22 0
-101 53 0
-22 53 102 0
-102 22 0
-102 -53 0
23 -54 103 0
-103 -23 0
-103 54 0
-23 54 104 0
-104 23 0
-104 -54 0
24 -55 105 0
-105 -24 0
-105 55 0
-24 55 106 0
-106 24 0
-106 -55 0
25 -56 107 0
-107 -25 0
-107 56 0
-25 56 108 0
-108 25 0
-108 -56 0
26 -57 109 0
-109 -26 0
-109 57 0
-26 57 110 0
-110 26 0
-110 -57 0
27 -58 111 0
-111 -27 0
-111 58 0
-27 58 112 0
-112 27 0
-112 -58 0
28 -59 113 0
-113 -28 0
-113 59 0
-28 59 114 0
-114 28 0
-114 -59 0
29 -60 115 0
-115 -29 0
-115 60 0
-29 60 116 0
-116 29 0
-116 -60 0
30 -61 117 0
-117 -30 0
-117 61 0
-30 61 118 0
-118 30 0
-118 -61 0
31 -62 119 0
-119 -31 0
-119 62 0
-31 62 120 0
-120 31 0
-120 -62 0
32 -63 121 0
-121 -32 0
-121 63 0
-32 63 122 0
-122 32 0
-122 -63 0
33 -64 123 0
-123 -33 0
-123 64 0
-33 64 124 0
-124 33 0
-124 -64 0
34 -65 125 0
-125 -34 0
-125 65 0
-34 65 126 0
-126 34 0
-126 -65 0
35 -66 127 0
-127 -35 0
-127 66 0
-127 126 128 0
-128 127 0
-128 -126 0
128 125 129 0
-129 -128 0
-129 -125 0
129 124 130 0
-130 -129 0
-130 -124 0
130 123 131 0
-131 -130 0
-131 -123 0
131 122 132 0
-132 -131 0
-132 -122 0
132 121 133 0
-133 -132 0
-133 -121 0
133 120 134 0
-134 -133 0
-134 -120 0
134 119 135 0
-135 -134 0
-135 -119 0
135 118 136 0
-136 -135 0
-136 -118 0
136 117 137 0
-137 -136 0
-137 -117 0
137 116 138 0
-138 -137 0
-138 -116 0
138 115 139 0
-139 -138 0
-139 -115 0
139 114 140 0
-140 -139 0
-140 -114 0
140 113 141 0
-141 -140 0
-141 -113 0
141 112 142 0
-142 -141 0
-142 -112 0
142 111 143 0
-143 -142 0
-143 -111 0
143 110 144 0
-144 -143 0
-144 -110 0
144 109 145 0
-145 -144 0
-145 -109 0
145 108 146 0
-146 -145 0
-146 -108 0
146 107 147 0
-147 -146 0
-147 -107 0
147 106 148 0
-148 -147 0
-148 -106 0
148 105 149 0
-149 -148 0
-149 -105 0
149 104 150 0
-150 -149 0
-150 -104 0
150 103 151 0
-151 -150 0
-151 -103 0
151 102 152 0
-152 -151 0
-152 -102 0
152 101 153 0
-153 -152 0
-153 -101 0
153 100 154 0
-154 -153 0
-154 -100 0
154 99 155 0
-155 -154 0
-155 -99 0
155 98 156 0
-156 -155 0
-156 -98 0
156 97 157 0
-157 -156 0
-157 -97 0
157 96 158 0
-158 -157 0
-158 -96 0
158 95 159 0
-159 -158 0
-159 -95 0
159 94 160 0
-160 -159 0
-160 -94 0
160 93 161 0
-161 -160 0
-161 -93 0
161 92 162 0
-162 -161 0
-162 -92 0
162 91 163 0
-163 -162 0
-163 -91 0
163 90 164 0
-164 -163 0
-164 -90 0
164 89 165 0
-165 -164 0
-165 -89 0
165 88 166 0
-166 -165 0
-166 -88 0
166 87 167 0
-167 -166 0
-167 -87 0
167 86 168 0
-168 -167 0
-168 -86 0
168 85 169 0
-169 -168 0
-169 -85 0
169 84 170 0
-170 -169 0
-170 -84 0
170 83 171 0
-171 -170 0
-171 -83 0
171 82 172 0
-172 -171 0
-172 -82 0
172 81 173 0
-173 -172 0
-173 -81 0
173 80 174 0
-174 -173 0
-174 -80 0
174 79 175 0
-175 -174 0
-175 -79 0
175 78 176 0
-176 -175 0
-176 -78 0
176 77 177 0
-177 -176 0
-177 -77 0
177 76 178 0
-178 -177 0
-178 -76 0
178 75 179 0
-179 -178 0
-179 -75 0
179 74 180 0
-180 -179 0
-180 -74 0
180 73 181 0
-181 -180 0
-181 -73 0
181 72 182 0
-182 -181 0
-182 -72 0
182 71 183 0
-183 -182 0
-183 -71 0
183 70 184 0
-184 -183 0
-184 -70 0
184 69 185 0
-185 -184 0
-185 -69 0
185 68 186 0
-186 -185 0
-186 -68 0
186 67 187 0
-187 -186 0
-187 -67 0
-4 187 188 0
-188 4 0
-188 -187 0
2 -3 189 0
-189 -2 0
-189 3 0
189 188 190 0
-190 -189 0
-190 -188 0
-190 0
222 221 223 0
-223 -222 0
-223 -221 0
220 -223 224 0
-224 -220 0
-224 223 0
219 -224 225 0
-225 -219 0
-225 224 0
218 -225 226 0
-226 -218 0
-226 225 0
217 -226 227 0
-227 -217 0
-227 226 0
216 -227 228 0
-228 -216 0
-228 227 0
215 -228 229 0
-229 -215 0
-229 228 0
214 -229 230 0
-230 -214 0
-230 229 0
213 -230 231 0
-231 -213 0
-231 230 0
212 -231 232 0
-232 -212 0
-232 231 0
211 -232 233 0
-233 -211 0
-233 232 0
210 -233 234 0
-234 -210 0
-234 233 0
209 -234 235 0
-235 -209 0
-235 234 0
208 -235 236 0
-236 -208 0
-236 235 0
207 -236 237 0
-237 -207 0
-237 236 0
206 -237 238 0
-238 -206 0
-238 237 0
205 -238 239 0
-239 -205 0
-239 238 0
204 -239 240 0
-240 -204 0
-240 239 0
203 -240 241 0
-241 -203 0
-241 240 0
202 -241 242 0
-242 -202 0
-242 241 0
201 -242 243 0
-243 -201 0
-243 242 0
200 -243 244 0
-244 -200 0
-244 243 0
199 -244 245 0
-245 -199 0
-245 244 0
198 -245 246 0
-246 -198 0
-246 245 0
197 -246 247 0
-247 -197 0
-247 246 0
196 -247 248 0
-248 -196 0
-248 247 0
195 -248 249 0
-249 -195 0
-249 248 0
194 -249 250 0
-250 -194 0
-250 249 0
193 -250 251 0
-251 -193 0
-251 250 0
192 -251 252 0
-252 -192 0
-252 251 0
191 252 253 0
-253 -191 0
-253 -252 0
-254 252 -191 0
-254 -252 191 0
254 -252 -191 0
254 252 191 0
-192 251 255 0
-255 192 0
-255 -251 0
255 252 256 0
-256 -255 0
-256 -252 0
-193 250 257 0
-257 193 0
-257 -250 0
257 251 258 0
-258 -257 0
-258 -251 0
-194 249 259 0
-259 194 0
-259 -249 0
259 250 260 0
-260 -259 0
-260 -250 0
-195 248 261 0
-261 195 0
-261 -248 0
261 249 262 0
-262 -261 0
-262 -249 0
-196 247 263 0
-263 196 0
-263 -247 0
263 248 264 0
-264 -263 0
-264 -248 0
-197 246 265 0
-265 197 0
-265 -246 0
265 247 266 0
-266 -265 0
-266 -247 0
-198 245 267 0
-267 198 0
-267 -245 0
267 246 268 0
-268 -267 0
-268 -246 0
-199 244 269 0
-269 199 0
-269 -244 0
269 245 270 0
-270 -269 0
-270 -245 0
-200 243 271 0
-271 200 0
-271 -243 0
271 244 272 0
-272 -271 0
-272 -244 0
-201 242 273 0
-273 201 0
-273 -242 0
273 243 274 0
-274 -273 0
-274 -243 0
-202 241 275 0
-275 202 0
-275 -241 0
275 242 276 0
-276 -275 0
-276 -242 0
-203 240 277 0
-277 203 0
-277 -240 0
277 241 278 0
-278 -277 0
-278 -241 0
-204 239 279 0
-279 204 0
-279 -239 0
279 240 280 0
-280 -279 0
-280 -240 0
-205 238 281 0
-281 205 0
-281 -238 0
281 239 282 0
-282 -281 0
-282 -239 0
-206 237 283 0
-283 206 0
-283 -237 0
283 238 284 0
-284 -283 0
-284 -238 0
-207 236 285 0
-285 207 0
-285 -236 0
285 237 286 0
-286 -285 0
-286 -237 0
-208 235 287 0
-287 208 0
-287 -235 0
287 236 288 0
-288 -287 0
-288 -236 0
-209 234 289 0
-289 209 0
-289 -234 0
289 235 290 0
-290 -289 0
-290 -235 0
-210 233 291 0
-291 210 0
-291 -233 0
291 234 292 0
-292 -291 0
-292 -234 0
-211 232 293 0
-293 211 0
-293 -232 0
293 233 294 0
-294 -293 0
-294 -233 0
-212 231 295 0
-295 212 0
-295 -231 0
295 232 296 0
-296 -295 0
-296 -232 0
-213 230 297 0
-297 213 0
-297 -230 0
297 231 298 0
-298 -297 0
-298 -231 0
-214 229 299 0
-299 214 0
-299 -229 0
299 230 300 0
-300 -299 0
-300 -230 0
-215 228 301 0
-301 215 0
-301 -228 0
301 229 302 0
-302 -301 0
-302 -229 0
-216 227 303 0
-303 216 0
-303 -227 0
303 228 304 0
-304 -303 0
-304 -228 0
-217 226 305 0
-305 217 0
-305 -226 0
305 227 306 0
-306 -305 0
-306 -227 0
-218 225 307 0
-307 218 0
-307 -225 0
307 226 308 0
-308 -307 0
-308 -226 0
-219 224 309 0
-309 219 0
-309 -224 0
309 225 310 0
-310 -309 0
-310 -225 0
-220 223 311 0
-311 220 0
-311 -223 0
311 224 312 0
-312 -311 0
-312 -224 0
-222 -221 313 0
-313 222 0
-313 221 0
313 223 314 0
-314 -313 0
-314 -223 0
-312 -310 315 0
-315 312 0
-315 310 0
-308 -315 316 0
-316 308 0
-316 315 0
-306 -316 317 0
-317 306 0
-317 316 0
-304 -317 318 0
-318 304 0
-318 317 0
-302 -318 319 0
-319 302 0
-319 318 0
-300 -319 320 0
-320 300 0
-320 319 0
-298 -320 321 0
-321 298 0
-321 320 0
-296 -321 322 0
-322 296 0
-322 321 0
-294 -322 323 0
-323 294 0
-323 322 0
-292 -323 324 0
-324 292 0
-324 323 0
-290 -324 325 0
-325 290 0
-325 324 0
-288 -325 326 0
-326 288 0
-326 325 0
-286 -326 327 0
-327 286 0
-327 326 0
-284 -327 328 0
-328 284 0
-328 327 0
-282 -328 329 0
-329 282 0
-329 328 0
-280 -329 330 0
-330 280 0
-330 329 0
-278 -330 331 0
-331 278 0
-331 330 0
-276 -331 332 0
-332 276 0
-332 331 0
-274 -332 333 0
-333 274 0
-333 332 0
-272 -333 334 0
-334 272 0
-334 333 0
-270 -334 335 0
-335 270 0
-335 334 0
-268 -335 336 0
-336 268 0
-336 335 0
-266 -336 337 0
-337 266 0
-337 336 0
-264 -337 338 0
-338 264 0
-338 337 0
-262 -338 339 0
-339 262 0
-339 338 0
-260 -339 340 0
-340 260 0
-340 339 0
-258 -340 341 0
-341 258 0
-341 340 0
-256 -341 342 0
-342 256 0
-342 341 0
-254 -342 343 0
-343 254 0
-343 342 0
-253 343 344 0
-344 253 0
-344 -343 0
-345 -343 -253 0
-345 343 253 0
345 343 -253 0
345 -343 253 0
254 342 346 0
-346 -254 0
-346 -342 0
343 346 347 0
-347 -343 0
-347 -346 0
256 341 348 0
-348 -256 0
-348 -341 0
342 348 349 0
-349 -342 0
-349 -348 0
258 340 350 0
-350 -258 0
-350 -340 0
341 350 351 0
-351 -341 0
-351 -350 0
260 339 352 0
-352 -260 0
-352 -339 0
340 352 353 0
-353 -340 0
-353 -352 0
262 338 354 0
-354 -262 0
-354 -338 0
339 354 355 0
-355 -339 0
-355 -354 0
264 337 356 0
-356 -264 0
-356 -337 0
338 356 357 0
-357 -338 0
-357 -356 0
266 336 358 0
-358 -266 0
-358 -336 0
337 358 359 0
-359 -337 0
-359 -358 0
268 335 360 0
-360 -268 0
-360 -335 0
336 360 361 0
-361 -336 0
-361 -360 0
270 334 362 0
-362 -270 0
-362 -334 0
335 362 363 0
-363 -335 0
-363 -362 0
272 333 364 0
-364 -272 0
-364 -333 0
334 364 365 0
-365 -334 0
-365 -364 0
274 332 366 0
-366 -274 0
-366 -332 0
333 366 367 0
-367 -333 0
-367 -366 0
276 331 368 0
-368 -276 0
-368 -331 0
332 368 369 0
-369 -332 0
-369 -368 0
278 330 370 0
-370 -278 0
-370 -330 0
331 370 371 0
-371 -331 0
-371 -370 0
280 329 372 0
-372 -280 0
-372 -329 0
330 372 373 0
-373 -330 0
-373 -372 0
282 328 374 0
-374 -282 0
-374 -328 0
329 374 375 0
-375 -329 0
-375 -374 0
284 327 376 0
-376 -284 0
-376 -327 0
328 376 377 0
-377 -328 0
-377 -376 0
286 326 378 0
-378 -286 0
-378 -326 0
327 378 379 0
-379 -327 0
-379 -378 0
288 325 380 0
-380 -288 0
-380 -325 0
326 380 381 0
-381 -326 0
-381 -380 0
290 324 382 0
-382 -290 0
-382 -324 0
325 382 383 0
-383 -325 0
-383 -382 0
292 323 384 0
-384 -292 0
-384 -323 0
324 384 385 0
-385 -324 0
-385 -384 0
294 322 386 0
-386 -294 0
-386 -322 0
323 386 387 0
-387 -323 0
-387 -386 0
296 321 388 0
-388 -296 0
-388 -321 0
322 388 389 0
-389 -322 0
-389 -388 0
298 320 390 0
-390 -298 0
-390 -320 0
321 390 391 0
-391 -321 0
-391 -390 0
300 319 392 0
-392 -300 0
-392 -319 0
320 392 393 0
-393 -320 0
-393 -392 0
302 318 394 0
-394 -302 0
-394 -318 0
319 394 395 0
-395 -319 0
-395 -394 0
304 317 396 0
-396 -304 0
-396 -317 0
318 396 397 0
-397 -318 0
-397 -396 0
306 316 398 0
-398 -306 0
-398 -316 0
317 398 399 0
-399 -317 0
-399 -398 0
308 315 400 0
-400 -308 0
-400 -315 0
316 400 401 0
-401 -316 0
-401 -400 0
312 310 402 0
-402 -312 0
-402 -310 0
315 402 403 0
-403 -315 0
-403 -402 0
222 314 404 0
-404 -222 0
-404 -314 0
-312 -404 405 0
-405 312 0
-405 404 0
403 -405 406 0
-406 -403 0
-406 405 0
401 -406 407 0
-407 -401 0
-407 406 0
399 -407 408 0
-408 -399 0
-408 407 0
397 -408 409 0
-409 -397 0
-409 408 0
395 -409 410 0
-410 -395 0
-410 409 0
393 -410 411 0
-411 -393 0
-411 410 0
391 -411 412 0
-412 -391 0
-412 411 0
389 -412 413 0
-413 -389 0
-413 412 0
387 -413 414 0
-414 -387 0
-414 413 0
385 -414 415 0
-415 -385 0
-415 414 0
383 -415 416 0
-416 -383 0
-416 415 0
381 -416 417 0
-417 -381 0
-417 416 0
379 -417 418 0
-418 -379 0
-418 417 0
377 -418 419 0
-419 -377 0
-419 418 0
375 -419 420 0
-420 -375 0
-420 419 0
373 -420 421 0
-421 -373 0
-421 420 0
371 -421 422 0
-422 -371 0
-422 421 0
369 -422 423 0
-423 -369 0
-423 422 0
367 -423 424 0
-424 -367 0
-424 423 0
365 -424 425 0
-425 -365 0
-425 424 0
363 -425 426 0
-426 -363 0
-426 425 0
361 -426 427 0
-427 -361 0
-427 426 0
359 -427 428 0
-428 -359 0
-428 427 0
357 -428 429 0
-429 -357 0
-429 428 0
355 -429 430 0
-430 -355 0
-430 429 0
353 -430 431 0
-431 -353 0
-431 430 0
351 -431 432 0
-432 -351 0
-432 431 0
349 -432 433 0
-433 -349 0
-433 432 0
347 -433 434 0
-434 -347 0
-434 433 0
345 -434 435 0
-435 -345 0
-435 434 0
344 -435 436 0
-436 -344 0
-436 435 0
-436 0
-344 0
-439 438 -437 0
-439 -438 437 0
439 -438 -437 0
439 438 437 0
440 -471 502 0
-502 -440 0
-502 471 0
-440 471 503 0
-503 440 0
-503 -471 0
441 -472 504 0
-504 -441 0
-504 472 0
-441 472 505 0
-505 441 0
-505 -472 0
442 -473 506 0
-506 -442 0
-506 473 0
-442 473 507 0
-507 442 0
-507 -473 0
443 -474 508 0
-508 -443 0
-508 474 0
-443 474 509 0
-509 443 0
-509 -474 0
444 -475 510 0
-510 -444 0
-510 475 0
-444 475 511 0
-511 444 0
-511 -475 0
445 -476 512 0
-512 -445 0
-512 476 0
-445 476 513 0
-513 445 0
-513 -476 0
446 -477 514 0
-514 -446 0
-514 477 0
-446 477 515 0
-515 446 0
-515 -477 0
447 -478 516 0
-516 -447 0
-516 478 0
-447 478 517 0
-517 447 0
-517 -478 0
448 -479 518 0
-518 -448 0
-518 479 0
-448 479 519 0
-519 448 0
-519 -479 0
449 -480 520 0
-520 -449 0
-520 480 0
-449 480 521 0
-521 449 0
-521 -480 0
450 -481 522 0
-522 -450 0
-522 481 0
-450 481 523 0
-523 450 0
-523 -481 0
451 -482 524 0
-524 -451 0
-524 482 0
-451 482 525 0
-525 451 0
-525 -482 0
452 -483 526 0
-526 -452 0
-526 483 0
-452 483 527 0
-527 452 0
-527 -483 0
453 -484 528 0
-528 -453 0
-528 484 0
-453 484 529 0
-529 453 0
-529 -484 0
454 -485 530 0
-530 -454 0
-530 485 0
-454 485 531 0
-531 454 0
-531 -485 0
455 -486 532 0
-532 -455 0
-532 486 0
-455 486 533 0
-533 455 0
-533 -486 0
456 -487 534 0
-534 -456 0
-534 487 0
-456 487 535 0
-535 456 0
-535 -487 0
457 -488 536 0
-536 -457 0
-536 488 0
-457 488 537 0
-537 457 0
-537 -488 0
458 -489 538 0
-538 -458 0
-538 489 0
-458 489 539 0
-539 458 0
-539 -489 0
459 -490 540 0
-540 -459 0
-540 490 0
-459 490 541 0
-541 459 0
-541 -490 0
460 -491 542 0
-542 -460 0
-542 491 0
-460 491 543 0
-543 460 0
-543 -491 0
461 -492 544 0
-544 -461 0
-544 492 0
-461 492 545 0
-545 461 0
-545 -492 0
462 -493 546 0
-546 -462 0
-546 493 0
-462 493 547 0
-547 462 0
-547 -493 0
463 -494 548 0
-548 -463 0
-548 494 0
-463 494 549 0
-549 463 0
-549 -494 0
464 -495 550 0
-550 -464 0
-550 495 0
-464 495 551 0
-551 464 0
-551 -495 0
465 -496 552 0
-552 -465 0
-552 496 0
-465 496 553 0
-553 465 0
-553 -496 0
466 -497 554 0
-554 -466 0
-554 497 0
-466 497 555 0
-555 466 0
-555 -497 0
467 -498 556 0
-556 -467 0
-556 498 0
-467 498 557 0
-557 467 0
-557 -498 0
468 -499 558 0
-558 -468 0
-558 499 0
-468 499 559 0
-559 468 0
-559 -499 0
469 -500 560 0
-560 -469 0
-560 500 0
-469 500 561 0
-561 469 0
-561 -500 0
470 -501 562 0
-562 -470 0
-562 501 0
-562 561 563 0
-563 562 0
-563 -561 0
563 560 564 0
-564 -563 0
-564 -560 0
564 559 565 0
-565 -564 0
-565 -559 0
565 558 566 0
-566 -565 0
-566 -558 0
566 557 567 0
-567 -566 0
-567 -557 0
567 556 568 0
-568 -567 0
-568 -556 0
568 555 569 0
-569 -568 0
-569 -555 0
569 554 570 0
-570 -569 0
-570 -554 0
570 553 571 0
-571 -570 0
-571 -553 0
571 552 572 0
-572 -571 0
-572 -552 0
572 551 573 0
-573 -572 0
-573 -551 0
573 550 574 0
-574 -573 0
-574 -550 0
574 549 575 0
-575 -574 0
-575 -549 0
575 548 576 0
-576 -575 0
-576 -548 0
576 547 577 0
-577 -576 0
-577 -547 0
577 546 578 0
-578 -577 0
-578 -546 0
578 545 579 0
-579 -578 0
-579 -545 0
579 544 580 0
-580 -579 0
-580 -544 0
580 543 581 0
-581 -580 0
-581 -543 0
581 542 582 0
-582 -581 0
-582 -542 0
582 541 583 0
-583 -582 0
-583 -541 0
583 540 584 0
-584 -583 0
-584 -540 0
584 539 585 0
-585 -584 0
-585 -539 0
585 538 586 0
-586 -585 0
-586 -538 0
586 537 587 0
-587 -586 0
-587 -537 0
587 536 588 0
-588 -587 0
-588 -536 0
588 535 589 0
-589 -588 0
-589 -535 0
589 534 590 0
-590 -589 0
-590 -534 0
590 533 591 0
-591 -590 0
-591 -533 0
591 532 592 0
-592 -591 0
-592 -532 0
592 531 593 0
-593 -592 0
-593 -531 0
593 530 594 0
-594 -593 0
-594 -530 0
594 529 595 0
-595 -594 0
-595 -529 0
595 528 596 0
-596 -595 0
-596 -528 0
596 527 597 0
-597 -596 0
-597 -527 0
597 526 598 0
-598 -597 0
-598 -526 0
598 525 599 0
-599 -598 0
-599 -525 0
599 524 600 0
-600 -599 0
-600 -524 0
600 523 601 0
-601 -600 0
-601 -523 0
601 522 602 0
-602 -601 0
-602 -522 0
602 521 603 0
-603 -602 0
-603 -521 0
603 520 604 0
-604 -603 0
-604 -520 0
604 519 605 0
-605 -604 0
-605 -519 0
605 518 606 0
-606 -605 0
-606 -518 0
606 517 607 0
-607 -606 0
-607 -517 0
607 516 608 0
-608 -607 0
-608 -516 0
608 515 609 0
-609 -608 0
-609 -515 0
609 514 610 0
-610 -609 0
-610 -514 0
610 513 611 0
-611 -610 0
-611 -513 0
611 512 612 0
-612 -611 0
-612 -512 0
612 511 613 0
-613 -612 0
-613 -511 0
613 510 614 0
-614 -613 0
-614 -510 0
614 509 615 0
-615 -614 0
-615 -509 0
615 508 616 0
-616 -615 0
-616 -508 0
616 507 617 0
-617 -616 0
-617 -507 0
617 506 618 0
-618 -617 0
-618 -506 0
618 505 619 0
-619 -618 0
-619 -505 0
619 504 620 0
-620 -619 0
-620 -504 0
620 503 621 0
-621 -620 0
-621 -503 0
621 502 622 0
-622 -621 0
-622 -502 0
-439 622 623 0
-623 439 0
-623 -622 0
437 -438 624 0
-624 -437 0
-624 438 0
624 623 625 0
-625 -624 0
-625 -623 0
-625 0
-627 -626 438 0
-627 626 -438 0
627 626 438 0
627 -626 -438 0
440 -628 659 0
-659 -440 0
-659 628 0
-440 628 660 0
-660 440 0
-660 -628 0
441 -629 661 0
-661 -441 0
-661 629 0
-441 629 662 0
-662 441 0
-662 -629 0
442 -630 663 0
-663 -442 0
-663 630 0
-442 630 664 0
-664 442 0
-664 -630 0
443 -631 665 0
-665 -443 0
-665 631 0
-443 631 666 0
-666 443 0
-666 -631 0
444 -632 667 0
-667 -444 0
-667 632 0
-444 632 668 0
-668 444 0
-668 -632 0
445 -633 669 0
-669 -445 0
-669 633 0
-445 633 670 0
-670 445 0
-670 -633 0
446 -634 671 0
-671 -446 0
-671 634 0
-446 634 672 0
-672 446 0
-672 -634 0
447 -635 673 0
-673 -447 0
-673 635 0
-447 635 674 0
-674 447 0
-674 -635 0
448 -636 675 0
-675 -448 0
-675 636 0
-448 636 676 0
-676 448 0
-676 -636 0
449 -637 677 0
-677 -449 0
-677 637 0
-449 637 678 0
-678 449 0
-678 -637 0
450 -638 679 0
-679 -450 0
-679 638 0
-450 638 680 0
-680 450 0
-680 -638 0
451 -639 681 0
-681 -451 0
-681 639 0
-451 639 682 0
-682 451 0
-682 -639 0
452 -640 683 0
-683 -452 0
-683 640 0
-452 640 684 0
-684 452 0
-684 -640 0
453 -641 685 0
-685 -453 0
-685 641 0
-453 641 686 0
-686 453 0
-686 -641 0
454 -642 687 0
-687 -454 0
-687 642 0
-454 642 688 0
-688 454 0
-688 -642 0
455 -643 689 0
-689 -455 0
-689 643 0
-455 643 690 0
-690 455 0
-690 -643 0
456 -644 691 0
-691 -456 0
-691 644 0
-456 644 692 0
-692 456 0
-692 -644 0
457 -645 693 0
-693 -457 0
-693 645 0
-457 645 694 0
-694 457 0
-694 -645 0
458 -646 695 0
-695 -458 0
-695 646 0
-458 646 696 0
-696 458 0
-696 -646 0
459 -647 697 0
-697 -459 0
-697 647 0
-459 647 698 0
-698 459 0
-698 -647 0
460 -648 699 0
-699 -460 0
-699 648 0
-460 648 700 0
-700 460 0
-700 -648 0
461 -649 701 0
-701 -461 0
-701 649 0
-461 649 702 0
-702 461 0
-702 -649 0
462 -650 703 0
-703 -462 0
-703 650 0
-462 650 704 0
-704 462 0
-704 -650 0
463 -651 705 0
-705 -463 0
-705 651 0
-463 651 706 0
-706 463 0
-706 -651 0
464 -652 707 0
-707 -464 0
-707 652 0
-464 652 708 0
-708 464 0
-708 -652 0
465 -653 709 0
-709 -465 0
-709 653 0
-465 653 710 0
-710 465 0
-710 -653 0
466 -654 711 0
-711 -466 0
-711 654 0
-466 654 712 0
-712 466 0
-712 -654 0
467 -655 713 0
-713 -467 0
-713 655 0
-467 655 714 0
-714 467 0
-714 -655 0
468 -656 715 0
-715 -468 0
-715 656 0
-468 656 716 0
-716 468 0
-716 -656 0
469 -657 717 0
-717 -469 0
-717 657 0
-469 657 718 0
-718 469 0
-718 -657 0
470 -658 719 0
-719 -470 0
-719 658 0
-719 718 720 0
-720 719 0
-720 -718 0
720 717 721 0
-721 -720 0
-721 -717 0
721 716 722 0
-722 -721 0
-722 -716 0
722 715 723 0
-723 -722 0
-723 -715 0
723 714 724 0
-724 -723 0
-724 -714 0
724 713 725 0
-725 -724 0
-725 -713 0
725 712 726 0
-726 -725 0
-726 -712 0
726 711 727 0
-727 -726 0
-727 -711 0
727 710 728 0
-728 -727 0
-728 -710 0
728 709 729 0
-729 -728 0
-729 -709 0
729 708 730 0
-730 -729 0
-730 -708 0
730 707 731 0
-731 -730 0
-731 -707 0
731 706 732 0
-732 -731 0
-732 -706 0
732 705 733 0
-733 -732 0
-733 -705 0
733 704 734 0
-734 -733 0
-734 -704 0
734 703 735 0
-735 -734 0
-735 -703 0
735 702 736 0
-736 -735 0
-736 -702 0
736 701 737 0
-737 -736 0
-737 -701 0
737 700 738 0
-738 -737 0
-738 -700 0
738 699 739 0
-739 -738 0
-739 -699 0
739 698 740 0
-740 -739 0
-740 -698 0
740 697 741 0
-741 -740 0
-741 -697 0
741 696 742 0
-742 -741 0
-742 -696 0
742 695 743 0
-743 -742 0
-743 -695 0
743 694 744 0
-744 -743 0
-744 -694 0
744 693 745 0
-745 -744 0
-745 -693 0
745 692 746 0
-746 -745 0
-746 -692 0
746 691 747 0
-747 -746 0
-747 -691 0
747 690 748 0
-748 -747 0
-748 -690 0
748 689 749 0
-749 -748 0
-749 -689 0
749 688 750 0
-750 -749 0
-750 -688 0
750 687 751 0
-751 -750 0
-751 -687 0
751 686 752 0
-752 -751 0
-752 -686 0
752 685 753 0
-753 -752 0
-753 -685 0
753 684 754 0
-754 -753 0
-754 -684 0
754 683 755 0
-755 -754 0
-755 -683 0
755 682 756 0
-756 -755 0
-756 -682 0
756 681 757 0
-757 -756 0
-757 -681 0
757 680 758 0
-758 -757 0
-758 -680 0
758 679 759 0
-759 -758 0
-759 -679 0
759 678 760 0
-760 -759 0
-760 -678 0
760 677 761 0
-761 -760 0
-761 -677 0
761 676 762 0
-762 -761 0
-762 -676 0
762 675 763 0
-763 -762 0
-763 -675 0
763 674 764 0
-764 -763 0
-764 -674 0
764 673 765 0
-765 -764 0
-765 -673 0
765 672 766 0
-766 -765 0
-766 -672 0
766 671 767 0
-767 -766 0
-767 -671 0
767 670 768 0
-768 -767 0
-768 -670 0
768 669 769 0
-769 -768 0
-769 -669 0
769 668 770 0
-770 -769 0
-770 -668 0
770 667 771 0
-771 -770 0
-771 -667 0
771 666 772 0
-772 -771 0
-772 -666 0
772 665 773 0
-773 -772 0
-773 -665 0
773 664 774 0
-774 -773 0
-774 -664 0
774 663 775 0
-775 -774 0
-775 -663 0
775 662 776 0
-776 -775 0
-776 -662 0
776 661 777 0
-777 -776 0
-777 -661 0
777 660 778 0
-778 -777 0
-778 -660 0
778 659 779 0
-779 -778 0
-779 -659 0
-627 779 780 0
-780 627 0
-780 -779 0
-780 0
-438 626 781 0
-781 438 0
-781 -626 0
-781 0
